c FILE /home/rafael/Documents/HappySet/MIHS/inputs/happygen/output/graph_d_regular_k4_p0.4_v50_20241127_082618.txt
c SOURCE This is a d-regular graph formed for the happy graph colouring problem.
c DESCRIPTION It was generated using the problem generator of Rhyd Lewis
c
c GRAPH STATS
c Seed                             = -1781499017
c Number of Nodes                  = 50
c Number of colours k              = 4
c Number of pre-assignments        = 20
c Degree of all vertices           = 6
c Density                          = 0.122449
c 
c The degrees of nodes 1 to 50, respectively, are as follows 
c [6, 6, 6, 6, 6, 6, 6, 6, 6, 6, 6, 6, 6, 6, 6, 6, 6, 6, 6, 6, 6, 6, 6, 6, 6, 6, 
c  6, 6, 6, 6, 6, 6, 6, 6, 6, 6, 6, 6, 6, 6, 6, 6, 6, 6, 6, 6, 6, 6, 6, 6] 
c  
p edge 50 150 4
e 1 13
e 1 23
e 1 26
e 1 39
e 1 45
e 1 48
e 2 6
e 2 7
e 2 16
e 2 23
e 2 26
e 2 49
e 3 22
e 3 24
e 3 42
e 3 43
e 3 46
e 3 49
e 4 20
e 4 22
e 4 24
e 4 25
e 4 28
e 4 40
e 5 7
e 5 15
e 5 20
e 5 40
e 5 42
e 5 46
e 6 7
e 6 25
e 6 27
e 6 37
e 6 39
e 7 14
e 7 15
e 7 19
e 8 10
e 8 12
e 8 15
e 8 21
e 8 30
e 8 39
e 9 13
e 9 30
e 9 35
e 9 36
e 9 45
e 9 48
e 10 18
e 10 33
e 10 38
e 10 46
e 10 48
e 11 13
e 11 17
e 11 21
e 11 27
e 11 28
e 11 30
e 12 21
e 12 26
e 12 28
e 12 30
e 12 32
e 13 29
e 13 34
e 13 36
e 14 18
e 14 29
e 14 31
e 14 36
e 14 48
e 15 19
e 15 40
e 15 41
e 16 19
e 16 24
e 16 25
e 16 34
e 16 37
e 17 20
e 17 28
e 17 33
e 17 41
e 17 44
e 18 27
e 18 41
e 18 47
e 18 49
e 19 22
e 19 39
e 19 47
e 20 24
e 20 35
e 20 36
e 21 38
e 21 43
e 21 45
e 22 28
e 22 38
e 22 49
e 23 43
e 23 46
e 23 48
e 23 49
e 24 25
e 24 37
e 25 26
e 25 29
e 26 30
e 26 43
e 27 31
e 27 40
e 27 44
e 28 42
e 29 31
e 29 34
e 29 36
e 30 32
e 31 39
e 31 49
e 31 50
e 32 36
e 32 37
e 32 41
e 32 44
e 33 35
e 33 38
e 33 44
e 33 47
e 34 41
e 34 42
e 34 44
e 35 38
e 35 39
e 35 45
e 37 43
e 37 50
e 38 47
e 40 46
e 40 47
e 41 45
e 42 46
e 42 48
e 43 50
e 44 50
e 45 50
e 47 50
n 1 2
n 4 2
n 5 3
n 7 3
n 8 3
n 12 3
n 15 3
n 17 2
n 19 3
n 24 2
n 25 2
n 27 4
n 30 3
n 31 4
n 32 3
n 33 2
n 36 3
n 43 1
n 48 2
n 49 4
